<?xml version = "1.0" encoding="UTF-8" standalone="yes"?>
<CPLEXSolution version="1.2">
 <header
   problemName="IloCplex"
   solutionName="p0"
   solutionIndex="-1"
   objectiveValue="239580"
   solutionTypeValue="3"
   solutionTypeString="primal"
   solutionStatusValue="127"
   solutionStatusString="integer feasible solution"
   solutionMethodString="mip"
   primalFeasible="0"
   dualFeasible="0"
   writeLevel="3"/>
 <quality
   epInt="1.0000000000000001e-05"
   epRHS="9.9999999999999995e-07"
   maxIntInfeas="0"
   maxPrimalInfeas="0"
   maxX="726"
   maxSlack="626"/>
 <variables>
  <variable index="1" value="726"/>
  <variable index="3" value="726"/>
  <variable index="6" value="726"/>
  <variable index="8" value="726"/>
  <variable index="84" value="1"/>
  <variable index="173" value="1"/>
  <variable index="217" value="1"/>
  <variable index="398" value="1"/>
  <variable index="451" value="1"/>
  <variable index="563" value="1"/>
  <variable index="664" value="1"/>
  <variable index="739" value="1"/>
  <variable index="885" value="1"/>
  <variable index="945" value="1"/>
  <variable index="1049" value="1"/>
  <variable index="1113" value="1"/>
  <variable index="1303" value="1"/>
  <variable index="1397" value="1"/>
  <variable index="1432" value="1"/>
  <variable index="1596" value="1"/>
  <variable index="1668" value="1"/>
  <variable index="1725" value="1"/>
  <variable index="1823" value="1"/>
  <variable index="1962" value="1"/>
  <variable index="2075" value="1"/>
  <variable index="2202" value="1"/>
  <variable index="2250" value="1"/>
  <variable index="2392" value="1"/>
  <variable index="2452" value="1"/>
  <variable index="2586" value="1"/>
  <variable index="2626" value="1"/>
  <variable index="2767" value="1"/>
  <variable index="2908" value="1"/>
  <variable index="2971" value="1"/>
  <variable index="3088" value="1"/>
  <variable index="3138" value="1"/>
  <variable index="3256" value="1"/>
  <variable index="3320" value="1"/>
  <variable index="3457" value="1"/>
  <variable index="3574" value="1"/>
  <variable index="3677" value="1"/>
  <variable index="3744" value="1"/>
  <variable index="3822" value="1"/>
  <variable index="3924" value="1"/>
  <variable index="4065" value="1"/>
  <variable index="4148" value="1"/>
  <variable index="4278" value="1"/>
  <variable index="4359" value="1"/>
  <variable index="4472" value="1"/>
  <variable index="4514" value="1"/>
  <variable index="4679" value="1"/>
  <variable index="4793" value="1"/>
  <variable index="4854" value="1"/>
  <variable index="4912" value="1"/>
  <variable index="5094" value="1"/>
  <variable index="5160" value="1"/>
  <variable index="5235" value="1"/>
  <variable index="5333" value="1"/>
  <variable index="5483" value="1"/>
  <variable index="5600" value="1"/>
  <variable index="5643" value="1"/>
  <variable index="5753" value="1"/>
  <variable index="5818" value="1"/>
  <variable index="6004" value="1"/>
  <variable index="6099" value="1"/>
  <variable index="6180" value="1"/>
  <variable index="6281" value="1"/>
  <variable index="6336" value="1"/>
  <variable index="6434" value="1"/>
  <variable index="6607" value="1"/>
  <variable index="6695" value="1"/>
  <variable index="6730" value="1"/>
  <variable index="6831" value="1"/>
  <variable index="6976" value="1"/>
  <variable index="7029" value="1"/>
  <variable index="7169" value="1"/>
  <variable index="7255" value="1"/>
  <variable index="7358" value="1"/>
  <variable index="7442" value="1"/>
  <variable index="7516" value="1"/>
  <variable index="7709" value="1"/>
  <variable index="7782" value="1"/>
  <variable index="7840" value="1"/>
  <variable index="7911" value="1"/>
  <variable index="8027" value="1"/>
  <variable index="8146" value="1"/>
  <variable index="8270" value="1"/>
  <variable index="8328" value="1"/>
  <variable index="8437" value="1"/>
  <variable index="8605" value="1"/>
  <variable index="8641" value="1"/>
  <variable index="8801" value="1"/>
  <variable index="8891" value="1"/>
  <variable index="8987" value="1"/>
  <variable index="9066" value="1"/>
  <variable index="9115" value="1"/>
  <variable index="9219" value="1"/>
  <variable index="9389" value="1"/>
  <variable index="9447" value="1"/>
  <variable index="9521" value="1"/>
  <variable index="9706" value="1"/>
  <variable index="9710" value="1"/>
  <variable index="9861" value="1"/>
  <variable index="9990" value="1"/>
  <variable index="10011" value="1"/>
  <variable index="10013" value="1"/>
  <variable index="10016" value="1"/>
  <variable index="10018" value="1"/>
  <variable index="10020" value="726"/>
 </variables>
</CPLEXSolution>
